\ENCODING=ISO-8859-1
\Problem name: IloCplex

Minimize
 obj1: 2 x_a_0 + x_a_1 + 2 x_a_2 + x_a_3 + x_a_4 + x_a_5 + 2 x_a_6 + 3 x_a_7
       + x_a_8 + 3 x_a_9 + 2 x_a_10 + 2 x_a_11 + 3 x_a_12 + 3 x_a_13 + 3 x_a_14
       + 2 x_a_15 + 3 x_a_16 + 3 x_a_17 + 2 x_a_18 + 3 x_a_19 + 3 x_a_20
       + 3 x_a_21 + 3 x_a_22 + x_a_23 + x_a_24 + x_a_25 + x_a_26 + 3 x_a_27
       + 2 x_a_28 + 2 x_a_29 + 3 x_a_30 + x_a_31 + 2 x_a_32 + x_a_33 + 2 x_a_34
       + x_a_35 + 2 x_a_36 + x_a_37 + 3 x_a_38 + x_a_39 + x_a_40 + 2 x_a_41
       + 3 x_a_42 + 3 x_a_43 + 2 x_a_44 + 2 x_a_45 + 3 x_a_46 + 3 x_a_47
       + x_a_48 + 2 x_a_49 + 2 x_a_50 + 3 x_a_51 + 3 x_a_52 + x_a_53 + x_a_54
       + 2 x_a_55 + x_a_56 + 3 x_a_57 + 3 x_a_58 + x_a_59 + 3 x_a_60 + 2 x_a_61
       + x_a_62 + 2 x_a_63 + 3 x_a_64 + 2 x_a_65 + 3 x_a_66 + x_a_67 + 3 x_a_68
       + 2 x_a_69 + x_a_70 + 3 x_a_71 + 3 x_a_72 + 3 x_a_73 + x_a_74 + x_a_75
       + 3 x_a_76 + 2 x_a_77 + 3 x_a_78 + 3 x_a_79 + 3 x_a_80 + 2 x_a_81
       + 2 x_a_82 + 2 x_a_83 + x_a_84 + x_a_85 + 3 x_a_86 + 3 x_a_87 + x_a_88
       + 2 x_a_89 + x_a_90 + 3 x_a_91 + 2 x_a_92 + x_a_93 + 2 x_a_94 + x_a_95
       + 3 x_a_96 + x_a_97 + 2 x_a_98 + 2 x_a_99 + x_a_100 + 2 x_a_101
       + x_a_102 + x_a_103 + 2 x_a_104 + 3 x_a_105 + 3 x_a_106 + 2 x_a_107
       + 2 x_a_108 + 2 x_a_109 + x_a_110 + x_a_111 + 3 x_a_112 + 2 x_a_113
       + 2 x_a_114 + 2 x_a_115 + 2 x_a_116 + 3 x_a_117 + 2 x_a_118 + x_a_119
       + 2 x_a_120 + x_a_121 + 3 x_a_122 + 2 x_a_123 + 2 x_a_124 + 2 x_a_125
       + x_a_126 + x_a_127 + 3 x_a_128 + 3 x_a_129 + x_a_130 + 3 x_a_131
       + 3 x_a_132 + 3 x_a_133 + 3 x_a_134 + 3 x_a_135 + 3 x_a_136 + 2 x_a_137
       + x_a_138 + 3 x_a_139 + 2 x_a_140 + x_a_141 + x_a_142 + 2 x_a_143
       + 2 x_a_144 + 3 x_a_145 + 3 x_a_146 + 2 x_a_147 + x_a_148 + 3 x_a_149
       + 3 x_a_150 + 2 x_a_151 + x_a_152 + 2 x_a_153 + x_a_154 + 3 x_a_155
       + x_a_156 + 2 x_a_157 + x_a_158 + x_a_159 + x_a_160 + 2 x_a_161
       + 2 x_a_162 + 2 x_a_163 + x_a_164 + 3 x_a_165 + x_a_166 + 2 x_a_167
       + 3 x_a_168 + 3 x_a_169 + x_a_170 + 2 x_a_171 + 2 x_a_172 + 3 x_a_173
       + x_a_174 + x_a_175 + 2 x_a_176 + 2 x_a_177 + 3 x_a_178 + 2 x_a_179
       + 2 x_a_180 + 3 x_a_181 + 3 x_a_182 + x_a_183 + x_a_184 + 3 x_a_185
       + x_a_186 + 3 x_a_187 + 2 x_a_188 + 3 x_a_189 + x_a_190 + x_a_191
       + 3 x_a_192 + x_a_193 + x_a_194 + 3 x_a_195 + x_a_196 + x_a_197
       + x_a_198 + 3 x_a_199 + 3 x_a_200 + 2 x_a_201 + x_a_202 + x_a_203
       + x_a_204 + 2 x_a_205 + x_a_206 + 2 x_a_207 + 2 x_a_208 + x_a_209
       + 2 x_a_210 + x_a_211 + 3 x_a_212 + x_a_213 + x_a_214 + x_a_215
       + x_a_216 + 2 x_a_217 + 3 x_a_218 + x_a_219 + x_a_220 + 3 x_a_221
       + x_a_222 + x_a_223 + 3 x_a_224 + x_a_225 + x_a_226 + 2 x_a_227
       + x_a_228 + x_a_229 + 3 x_a_230 + x_a_231 + 3 x_a_232 + 2 x_a_233
       + 3 x_a_234 + 2 x_a_235 + x_a_236 + x_a_237 + x_a_238 + 2 x_a_239
       + 3 x_a_240 + x_a_241 + 2 x_a_242 + 3 x_a_243 + 2 x_a_244 + 3 x_a_245
       + 3 x_a_246 + 2 x_a_247 + 1000000000 x_a_248 + 1000000000 x_a_249
       + 1000000000 x_a_250 + 1000000000 x_a_251 + 1000000000 x_a_252
       + 1000000000 x_a_253 + 1000000000 x_a_254 + 1000000000 x_a_255
       + 1000000000 x_a_256 + 1000000000 x_a_257 + 1000000000 x_a_258
       + 1000000000 x_a_259 + 1000000000 x_a_260 + 1000000000 x_a_261
       + 1000000000 x_a_262 + 1000000000 x_a_263 + 1000000000 x_a_264
       + 1000000000 x_a_265 + 1000000000 x_a_266 + 1000000000 x_a_267
       + 1000000000 x_a_268 + 1000000000 x_a_269 + 1000000000 x_a_270
       + 1000000000 x_a_271 + 10000 x_a_272
Subject To
 c1:   y_a_248 + y_a_249 + y_a_250 + y_a_251 + y_a_252 + y_a_253 + y_a_254
       + y_a_255 + y_a_256 + y_a_257 + y_a_258 + y_a_259 <= 92.4
 c2:   y_a_0 + y_a_1 + y_a_2 + y_a_3 + y_a_4 + y_a_5 + y_a_6 + y_a_7 + y_a_8
       + y_a_9  = 0
 c3:   - y_a_249 - y_a_251 - y_a_0 + y_a_10 + y_a_11 + y_a_12 + y_a_13 + y_a_14
       + y_a_15 + y_a_16 + y_a_17  = 0
 c4:   - y_a_10 + y_a_18 + y_a_19 + y_a_20 + y_a_21 + y_a_22 + y_a_23 + y_a_24
       + y_a_269  = 0
 c5:   - y_a_1 + y_a_25 + y_a_26 + y_a_27 + y_a_28 + y_a_29 + y_a_30 + y_a_31
       + y_a_32 + y_a_33  = 0
 c6:   - y_a_11 - y_a_25 + y_a_34 + y_a_35 + y_a_36 + y_a_37 + y_a_38 + y_a_39
       + y_a_40  = 0
 c7:   - y_a_18 + y_a_41 + y_a_42 + y_a_43 + y_a_44 + y_a_45  = 0
 c8:   - y_a_2 + y_a_46 + y_a_47 + y_a_48 + y_a_49 + y_a_50 + y_a_51 + y_a_52
       + y_a_53 + y_a_54 + y_a_55 + y_a_56  = 0
 c9:   - y_a_19 - y_a_34 - y_a_46 + y_a_57 + y_a_58 + y_a_59 + y_a_60 + y_a_61
       + y_a_62 + y_a_63 + y_a_64 + y_a_271  = 0
 c10:  - y_a_3 - y_a_20 - y_a_41 + y_a_65 + y_a_66 + y_a_67 + y_a_68 + y_a_69
       + y_a_70 + y_a_71 + y_a_72  = 0
 c11:  - y_a_21 + y_a_73 + y_a_74 + y_a_75 + y_a_76 + y_a_77 + y_a_78 + y_a_266
        = 0
 c12:  - y_a_12 - y_a_73 + y_a_79 + y_a_80 + y_a_81 + y_a_82 + y_a_83 + y_a_84
        = 0
 c13:  - y_a_57 - y_a_74 + y_a_85 + y_a_86 + y_a_87 + y_a_88  = 0
 c14:  - y_a_250 - y_a_258 - y_a_4 - y_a_47 + y_a_89 + y_a_90 + y_a_91 + y_a_92
       + y_a_93 + y_a_94  = 0
 c15:  - y_a_248 - y_a_5 - y_a_79 - y_a_89 + y_a_95 + y_a_96 + y_a_97 + y_a_98
       + y_a_99 + y_a_100 + y_a_101 + y_a_102 + y_a_103  = 0
 c16:  - y_a_259 - y_a_22 + y_a_104 + y_a_105 + y_a_106 + y_a_107 + y_a_108
        = 0
 c17:  - y_a_26 - y_a_65 + y_a_109 + y_a_110 + y_a_111 + y_a_112 + y_a_113
       + y_a_114 + y_a_115 + y_a_116  = 0
 c18:  - y_a_42 - y_a_58 + y_a_117 + y_a_118 + y_a_119 + y_a_120 + y_a_121
       + y_a_122  = 0
 c19:  - y_a_90 - y_a_104 + y_a_123 + y_a_124 + y_a_125 + y_a_126  = 0
 c20:  - y_a_43 + y_a_127 + y_a_128 + y_a_129 + y_a_130 + y_a_131  = 0
 c21:  - y_a_66 - y_a_95 - y_a_123 + y_a_132 + y_a_133 + y_a_134 + y_a_135
       + y_a_136 + y_a_137  = 0
 c22:  - y_a_132 + y_a_138 + y_a_139 + y_a_140 + y_a_141 + y_a_142  = 0
 c23:  - y_a_85 - y_a_109 - y_a_127 + y_a_143 + y_a_144 + y_a_145 + y_a_146
       + y_a_147 + y_a_148 + y_a_149  = 0
 c24:  - y_a_67 - y_a_105 - y_a_110 - y_a_133 + y_a_150 + y_a_151 + y_a_152
       + y_a_153  = 0
 c25:  - y_a_6 - y_a_13 - y_a_48 - y_a_96 - y_a_128 + y_a_154 + y_a_155
       + y_a_156 + y_a_157 + y_a_158 + y_a_159  = 0
 c26:  - y_a_27 - y_a_44 - y_a_49 - y_a_97 + y_a_160 + y_a_161 + y_a_162
       + y_a_265  = 0
 c27:  - y_a_50 - y_a_59 - y_a_143 - y_a_150 + y_a_163 + y_a_164 + y_a_165
       + y_a_166  = 0
 c28:  - y_a_7 - y_a_91 - y_a_111 + y_a_167 + y_a_168 + y_a_169 + y_a_170
       + y_a_171 + y_a_172  = 0
 c29:  - y_a_35 - y_a_51 - y_a_68 - y_a_134 - y_a_138 - y_a_144 + y_a_173
       + y_a_174 + y_a_175 + y_a_176 + y_a_177  = 0
 c30:  - y_a_106 - y_a_129 - y_a_135 - y_a_151 - y_a_154 - y_a_160 - y_a_167
       + y_a_178 + y_a_179 + y_a_180 + y_a_181 + y_a_182 + y_a_183  = 0
 c31:  - y_a_14 - y_a_23 - y_a_112 - y_a_168 - y_a_173 - y_a_178 + y_a_184
       + y_a_185 + y_a_186 + y_a_187  = 0
 c32:  - y_a_52 - y_a_117 - y_a_163 - y_a_184 + y_a_188 + y_a_189 + y_a_190
       + y_a_191 + y_a_192  = 0
 c33:  - y_a_36 - y_a_80 - y_a_107 - y_a_136 - y_a_139 + y_a_193 + y_a_194
       + y_a_195 + y_a_196 + y_a_197 + y_a_268  = 0
 c34:  - y_a_28 - y_a_69 - y_a_118 - y_a_155 - y_a_161 - y_a_188 + y_a_198
       + y_a_199 + y_a_200 + y_a_201 + y_a_202 + y_a_261  = 0
 c35:  - y_a_257 - y_a_29 - y_a_70 - y_a_92 - y_a_169 - y_a_179 - y_a_193
       + y_a_203 + y_a_204 + y_a_205 + y_a_206  = 0
 c36:  - y_a_30 - y_a_113 - y_a_140 - y_a_145 - y_a_174 - y_a_189 + y_a_207
       + y_a_208  = 0
 c37:  - y_a_93 - y_a_98 - y_a_156 - y_a_164 - y_a_194 + y_a_209 + y_a_210  = 0
 c38:  - y_a_71 - y_a_108 - y_a_119 - y_a_137 - y_a_146 - y_a_203 + y_a_211
       + y_a_212 + y_a_213 + y_a_264  = 0
 c39:  - y_a_53 - y_a_60 - y_a_81 - y_a_124 - y_a_147 - y_a_157 - y_a_175
       - y_a_185 + y_a_214 + y_a_215 + y_a_216 + y_a_262  = 0
 c40:  - y_a_186 - y_a_209 + y_a_217 + y_a_218 + y_a_219 + y_a_270  = 0
 c41:  - y_a_31 - y_a_37 - y_a_61 - y_a_99 - y_a_170 + y_a_220 + y_a_221  = 0
 c42:  - y_a_38 - y_a_94 - y_a_114 - y_a_190 - y_a_195 - y_a_214 + y_a_222
       + y_a_223 + y_a_224  = 0
 c43:  - y_a_75 - y_a_82 - y_a_176 - y_a_187 - y_a_198 - y_a_215 - y_a_220
       + y_a_225 + y_a_226 + y_a_227 + y_a_228  = 0
 c44:  - y_a_39 - y_a_130 - y_a_148 - y_a_152 - y_a_158 - y_a_180 - y_a_199
       - y_a_204 + y_a_267  = 0
 c45:  - y_a_253 - y_a_8 - y_a_76 - y_a_207 - y_a_225 + y_a_229 + y_a_230
       + y_a_231 + y_a_232  = 0
 c46:  - y_a_24 - y_a_32 - y_a_54 - y_a_141 - y_a_165 - y_a_208 - y_a_211
       - y_a_229 + y_a_233 + y_a_234 + y_a_235 + y_a_236  = 0
 c47:  - y_a_15 - y_a_40 - y_a_55 - y_a_120 - y_a_159 - y_a_191 - y_a_205
       - y_a_212 - y_a_233 + y_a_237 + y_a_238 + y_a_239 + y_a_240  = 0
 c48:  - y_a_255 - y_a_45 - y_a_83 - y_a_149 - y_a_171 - y_a_181 - y_a_200
       - y_a_216 - y_a_226 + y_a_241 + y_a_242  = 0
 c49:  - y_a_62 - y_a_86 - y_a_100 - y_a_166 - y_a_196 - y_a_201 - y_a_217
       - y_a_222 + y_a_243  = 0
 c50:  - y_a_72 - y_a_87 - y_a_237 + y_a_244 + y_a_245  = 0
 c51:  - y_a_254 - y_a_131 - y_a_182 - y_a_192 - y_a_206 - y_a_223 + y_a_246
        = 0
 c52:  - y_a_88 - y_a_125 - y_a_177 - y_a_183 - y_a_227 - y_a_238  = 0
 c53:  - y_a_252 - y_a_56 - y_a_77 - y_a_84 - y_a_101 - y_a_115 - y_a_153
       - y_a_213 - y_a_224 - y_a_230 - y_a_234 - y_a_244  = 0
 c54:  - y_a_256 - y_a_33 - y_a_116 - y_a_231 - y_a_235 - y_a_239 + y_a_247
        = 0
 c55:  - y_a_16 - y_a_63 - y_a_102 - y_a_202 - y_a_218 - y_a_236  = 0
 c56:  - y_a_9 - y_a_121 - y_a_228 - y_a_241  = 0
 c57:  - y_a_64 - y_a_103 - y_a_162 - y_a_197 - y_a_232 - y_a_242 - y_a_246
       - y_a_247  = 0
 c58:  - y_a_78 - y_a_122 - y_a_142 - y_a_172 - y_a_210 - y_a_219 - y_a_243
       + y_a_260 + y_a_263  = 0
 c59:  - y_a_17 - y_a_126 - y_a_221 - y_a_240 - y_a_245  = 0
 c60:  y_a_248 + y_a_249 + y_a_250 + y_a_251 + y_a_252 + y_a_253 + y_a_254
       + y_a_255 + y_a_256 + y_a_257 + y_a_258 + y_a_259 - y_a_272  = 0
 c61:  - y_a_269 - y_a_271 - y_a_266 - y_a_265 - y_a_268 - y_a_261 - y_a_264
       - y_a_262 - y_a_270 - y_a_267 - y_a_260 - y_a_263 + y_a_272  = 0
 c62:  y_a_0 + 16 x_a_0 <= 16
 c63:  y_a_1 + 37 x_a_1 <= 37
 c64:  y_a_2 + 39 x_a_2 <= 39
 c65:  y_a_3 + 21 x_a_3 <= 21
 c66:  y_a_4 + 5 x_a_4 <= 5
 c67:  y_a_5 + 25 x_a_5 <= 25
 c68:  y_a_6 + 20 x_a_6 <= 20
 c69:  y_a_7 + 23 x_a_7 <= 23
 c70:  y_a_8 + 17 x_a_8 <= 17
 c71:  y_a_9 + 26 x_a_9 <= 26
 c72:  y_a_10 + 43 x_a_10 <= 43
 c73:  y_a_11 + 28 x_a_11 <= 28
 c74:  y_a_12 + 39 x_a_12 <= 39
 c75:  y_a_13 + 18 x_a_13 <= 18
 c76:  y_a_14 + 12 x_a_14 <= 12
 c77:  y_a_15 + 9 x_a_15 <= 9
 c78:  y_a_16 + 45 x_a_16 <= 45
 c79:  y_a_17 + 24 x_a_17 <= 24
 c80:  y_a_18 + 37 x_a_18 <= 37
 c81:  y_a_19 + 13 x_a_19 <= 13
 c82:  y_a_20 + x_a_20 <= 1
 c83:  y_a_21 + 31 x_a_21 <= 31
 c84:  y_a_22 + 30 x_a_22 <= 30
 c85:  y_a_23 + 37 x_a_23 <= 37
 c86:  y_a_24 + 47 x_a_24 <= 47
 c87:  y_a_25 + 3 x_a_25 <= 3
 c88:  y_a_26 + 22 x_a_26 <= 22
 c89:  y_a_27 + 33 x_a_27 <= 33
 c90:  y_a_28 + 49 x_a_28 <= 49
 c91:  y_a_29 + 44 x_a_29 <= 44
 c92:  y_a_30 + 47 x_a_30 <= 47
 c93:  y_a_31 + 30 x_a_31 <= 30
 c94:  y_a_32 + 15 x_a_32 <= 15
 c95:  y_a_33 + 4 x_a_33 <= 4
 c96:  y_a_34 + 12 x_a_34 <= 12
 c97:  y_a_35 + 28 x_a_35 <= 28
 c98:  y_a_36 + 31 x_a_36 <= 31
 c99:  y_a_37 + 14 x_a_37 <= 14
 c100: y_a_38 + 46 x_a_38 <= 46
 c101: y_a_39 + 26 x_a_39 <= 26
 c102: y_a_40 + 7 x_a_40 <= 7
 c103: y_a_41 + x_a_41 <= 1
 c104: y_a_42 + 48 x_a_42 <= 48
 c105: y_a_43 + 49 x_a_43 <= 49
 c106: y_a_44 + 19 x_a_44 <= 19
 c107: y_a_45 + 29 x_a_45 <= 29
 c108: y_a_46 + 29 x_a_46 <= 29
 c109: y_a_47 + 11 x_a_47 <= 11
 c110: y_a_48 + 36 x_a_48 <= 36
 c111: y_a_49 + 48 x_a_49 <= 48
 c112: y_a_50 + 27 x_a_50 <= 27
 c113: y_a_51 + 26 x_a_51 <= 26
 c114: y_a_52 + 42 x_a_52 <= 42
 c115: y_a_53 + 42 x_a_53 <= 42
 c116: y_a_54 + 48 x_a_54 <= 48
 c117: y_a_55 + 42 x_a_55 <= 42
 c118: y_a_56 + 32 x_a_56 <= 32
 c119: y_a_57 + 37 x_a_57 <= 37
 c120: y_a_58 + 49 x_a_58 <= 49
 c121: y_a_59 + 34 x_a_59 <= 34
 c122: y_a_60 + 23 x_a_60 <= 23
 c123: y_a_61 + 6 x_a_61 <= 6
 c124: y_a_62 + 13 x_a_62 <= 13
 c125: y_a_63 + 34 x_a_63 <= 34
 c126: y_a_64 + 30 x_a_64 <= 30
 c127: y_a_65 + 14 x_a_65 <= 14
 c128: y_a_66 + 19 x_a_66 <= 19
 c129: y_a_67 + 7 x_a_67 <= 7
 c130: y_a_68 + 28 x_a_68 <= 28
 c131: y_a_69 + 31 x_a_69 <= 31
 c132: y_a_70 + 8 x_a_70 <= 8
 c133: y_a_71 + 38 x_a_71 <= 38
 c134: y_a_72 + 26 x_a_72 <= 26
 c135: y_a_73 + 2 x_a_73 <= 2
 c136: y_a_74 + 41 x_a_74 <= 41
 c137: y_a_75 + 6 x_a_75 <= 6
 c138: y_a_76 + 42 x_a_76 <= 42
 c139: y_a_77 + 29 x_a_77 <= 29
 c140: y_a_78 + 45 x_a_78 <= 45
 c141: y_a_79 + 6 x_a_79 <= 6
 c142: y_a_80 + 9 x_a_80 <= 9
 c143: y_a_81 + 37 x_a_81 <= 37
 c144: y_a_82 + 14 x_a_82 <= 14
 c145: y_a_83 + 43 x_a_83 <= 43
 c146: y_a_84 + 3 x_a_84 <= 3
 c147: y_a_85 + 46 x_a_85 <= 46
 c148: y_a_86 + 46 x_a_86 <= 46
 c149: y_a_87 + 43 x_a_87 <= 43
 c150: y_a_88 + 47 x_a_88 <= 47
 c151: y_a_89 + 27 x_a_89 <= 27
 c152: y_a_90 + 39 x_a_90 <= 39
 c153: y_a_91 + 18 x_a_91 <= 18
 c154: y_a_92 + 10 x_a_92 <= 10
 c155: y_a_93 + 27 x_a_93 <= 27
 c156: y_a_94 + 42 x_a_94 <= 42
 c157: y_a_95 + 11 x_a_95 <= 11
 c158: y_a_96 + 28 x_a_96 <= 28
 c159: y_a_97 + 28 x_a_97 <= 28
 c160: y_a_98 + 28 x_a_98 <= 28
 c161: y_a_99 + 9 x_a_99 <= 9
 c162: y_a_100 + 34 x_a_100 <= 34
 c163: y_a_101 + 9 x_a_101 <= 9
 c164: y_a_102 + 8 x_a_102 <= 8
 c165: y_a_103 + 47 x_a_103 <= 47
 c166: y_a_104 + 41 x_a_104 <= 41
 c167: y_a_105 + 11 x_a_105 <= 11
 c168: y_a_106 + 13 x_a_106 <= 13
 c169: y_a_107 + 25 x_a_107 <= 25
 c170: y_a_108 + 41 x_a_108 <= 41
 c171: y_a_109 + 47 x_a_109 <= 47
 c172: y_a_110 + 22 x_a_110 <= 22
 c173: y_a_111 + 47 x_a_111 <= 47
 c174: y_a_112 + 26 x_a_112 <= 26
 c175: y_a_113 + 18 x_a_113 <= 18
 c176: y_a_114 + 3 x_a_114 <= 3
 c177: y_a_115 + 40 x_a_115 <= 40
 c178: y_a_116 + 23 x_a_116 <= 23
 c179: y_a_117 + 32 x_a_117 <= 32
 c180: y_a_118 + 12 x_a_118 <= 12
 c181: y_a_119 + 31 x_a_119 <= 31
 c182: y_a_120 + 48 x_a_120 <= 48
 c183: y_a_121 + 27 x_a_121 <= 27
 c184: y_a_122 + 18 x_a_122 <= 18
 c185: y_a_123 + 22 x_a_123 <= 22
 c186: y_a_124 + 15 x_a_124 <= 15
 c187: y_a_125 + 7 x_a_125 <= 7
 c188: y_a_126 + 6 x_a_126 <= 6
 c189: y_a_127 + 27 x_a_127 <= 27
 c190: y_a_128 + 19 x_a_128 <= 19
 c191: y_a_129 + 49 x_a_129 <= 49
 c192: y_a_130 + 49 x_a_130 <= 49
 c193: y_a_131 + 38 x_a_131 <= 38
 c194: y_a_132 + 10 x_a_132 <= 10
 c195: y_a_133 + 27 x_a_133 <= 27
 c196: y_a_134 + 32 x_a_134 <= 32
 c197: y_a_135 + 22 x_a_135 <= 22
 c198: y_a_136 + x_a_136 <= 1
 c199: y_a_137 + 48 x_a_137 <= 48
 c200: y_a_138 + 2 x_a_138 <= 2
 c201: y_a_139 + 34 x_a_139 <= 34
 c202: y_a_140 + 8 x_a_140 <= 8
 c203: y_a_141 + 11 x_a_141 <= 11
 c204: y_a_142 + 40 x_a_142 <= 40
 c205: y_a_143 + 7 x_a_143 <= 7
 c206: y_a_144 + 37 x_a_144 <= 37
 c207: y_a_145 + 40 x_a_145 <= 40
 c208: y_a_146 + 18 x_a_146 <= 18
 c209: y_a_147 + 25 x_a_147 <= 25
 c210: y_a_148 + 38 x_a_148 <= 38
 c211: y_a_149 + 24 x_a_149 <= 24
 c212: y_a_150 + 47 x_a_150 <= 47
 c213: y_a_151 + 47 x_a_151 <= 47
 c214: y_a_152 + 16 x_a_152 <= 16
 c215: y_a_153 + 2 x_a_153 <= 2
 c216: y_a_154 + 40 x_a_154 <= 40
 c217: y_a_155 + 13 x_a_155 <= 13
 c218: y_a_156 + 12 x_a_156 <= 12
 c219: y_a_157 + 15 x_a_157 <= 15
 c220: y_a_158 + 33 x_a_158 <= 33
 c221: y_a_159 + 49 x_a_159 <= 49
 c222: y_a_160 + 20 x_a_160 <= 20
 c223: y_a_161 + 23 x_a_161 <= 23
 c224: y_a_162 + 46 x_a_162 <= 46
 c225: y_a_163 + 40 x_a_163 <= 40
 c226: y_a_164 + 4 x_a_164 <= 4
 c227: y_a_165 + 10 x_a_165 <= 10
 c228: y_a_166 + 48 x_a_166 <= 48
 c229: y_a_167 + 4 x_a_167 <= 4
 c230: y_a_168 + 33 x_a_168 <= 33
 c231: y_a_169 + 9 x_a_169 <= 9
 c232: y_a_170 + 25 x_a_170 <= 25
 c233: y_a_171 + 4 x_a_171 <= 4
 c234: y_a_172 + 38 x_a_172 <= 38
 c235: y_a_173 + 21 x_a_173 <= 21
 c236: y_a_174 + 25 x_a_174 <= 25
 c237: y_a_175 + 3 x_a_175 <= 3
 c238: y_a_176 + 40 x_a_176 <= 40
 c239: y_a_177 + 5 x_a_177 <= 5
 c240: y_a_178 + 34 x_a_178 <= 34
 c241: y_a_179 + 16 x_a_179 <= 16
 c242: y_a_180 + 28 x_a_180 <= 28
 c243: y_a_181 + 42 x_a_181 <= 42
 c244: y_a_182 + 46 x_a_182 <= 46
 c245: y_a_183 + 13 x_a_183 <= 13
 c246: y_a_184 + 26 x_a_184 <= 26
 c247: y_a_185 + 24 x_a_185 <= 24
 c248: y_a_186 + 26 x_a_186 <= 26
 c249: y_a_187 + 25 x_a_187 <= 25
 c250: y_a_188 + 49 x_a_188 <= 49
 c251: y_a_189 + 46 x_a_189 <= 46
 c252: y_a_190 + 47 x_a_190 <= 47
 c253: y_a_191 + 18 x_a_191 <= 18
 c254: y_a_192 + 6 x_a_192 <= 6
 c255: y_a_193 + 19 x_a_193 <= 19
 c256: y_a_194 + 23 x_a_194 <= 23
 c257: y_a_195 + 5 x_a_195 <= 5
 c258: y_a_196 + 28 x_a_196 <= 28
 c259: y_a_197 + 37 x_a_197 <= 37
 c260: y_a_198 + 4 x_a_198 <= 4
 c261: y_a_199 + 14 x_a_199 <= 14
 c262: y_a_200 + 3 x_a_200 <= 3
 c263: y_a_201 + 42 x_a_201 <= 42
 c264: y_a_202 + 42 x_a_202 <= 42
 c265: y_a_203 + 43 x_a_203 <= 43
 c266: y_a_204 + 27 x_a_204 <= 27
 c267: y_a_205 + 25 x_a_205 <= 25
 c268: y_a_206 + 30 x_a_206 <= 30
 c269: y_a_207 + 48 x_a_207 <= 48
 c270: y_a_208 + 6 x_a_208 <= 6
 c271: y_a_209 + 27 x_a_209 <= 27
 c272: y_a_210 + 12 x_a_210 <= 12
 c273: y_a_211 + 36 x_a_211 <= 36
 c274: y_a_212 + 35 x_a_212 <= 35
 c275: y_a_213 + 31 x_a_213 <= 31
 c276: y_a_214 + 16 x_a_214 <= 16
 c277: y_a_215 + 35 x_a_215 <= 35
 c278: y_a_216 + 9 x_a_216 <= 9
 c279: y_a_217 + 4 x_a_217 <= 4
 c280: y_a_218 + 12 x_a_218 <= 12
 c281: y_a_219 + 30 x_a_219 <= 30
 c282: y_a_220 + 12 x_a_220 <= 12
 c283: y_a_221 + 14 x_a_221 <= 14
 c284: y_a_222 + 24 x_a_222 <= 24
 c285: y_a_223 + 7 x_a_223 <= 7
 c286: y_a_224 + 21 x_a_224 <= 21
 c287: y_a_225 + 29 x_a_225 <= 29
 c288: y_a_226 + 8 x_a_226 <= 8
 c289: y_a_227 + 25 x_a_227 <= 25
 c290: y_a_228 + 21 x_a_228 <= 21
 c291: y_a_229 + 40 x_a_229 <= 40
 c292: y_a_230 + 20 x_a_230 <= 20
 c293: y_a_231 + 18 x_a_231 <= 18
 c294: y_a_232 + 39 x_a_232 <= 39
 c295: y_a_233 + 27 x_a_233 <= 27
 c296: y_a_234 + 8 x_a_234 <= 8
 c297: y_a_235 + 30 x_a_235 <= 30
 c298: y_a_236 + 27 x_a_236 <= 27
 c299: y_a_237 + 31 x_a_237 <= 31
 c300: y_a_238 + 39 x_a_238 <= 39
 c301: y_a_239 + 17 x_a_239 <= 17
 c302: y_a_240 + 35 x_a_240 <= 35
 c303: y_a_241 + 48 x_a_241 <= 48
 c304: y_a_242 + 7 x_a_242 <= 7
 c305: y_a_243 + x_a_243 <= 1
 c306: y_a_244 + 12 x_a_244 <= 12
 c307: y_a_245 + 8 x_a_245 <= 8
 c308: y_a_246 + 31 x_a_246 <= 31
 c309: y_a_247 + 18 x_a_247 <= 18
 c310: y_a_248 + 50000000 x_a_248 <= 50000000
 c311: y_a_249 + 50000000 x_a_249 <= 50000000
 c312: y_a_250 + 50000000 x_a_250 <= 50000000
 c313: y_a_251 + 50000000 x_a_251 <= 50000000
 c314: y_a_252 + 50000000 x_a_252 <= 50000000
 c315: y_a_253 + 50000000 x_a_253 <= 50000000
 c316: y_a_254 + 50000000 x_a_254 <= 50000000
 c317: y_a_255 + 50000000 x_a_255 <= 50000000
 c318: y_a_256 + 50000000 x_a_256 <= 50000000
 c319: y_a_257 + 50000000 x_a_257 <= 50000000
 c320: y_a_258 + 50000000 x_a_258 <= 50000000
 c321: y_a_259 + 50000000 x_a_259 <= 50000000
 c322: y_a_260 + 50000000 x_a_260 <= 50000000
 c323: y_a_261 + 50000000 x_a_261 <= 50000000
 c324: y_a_262 + 50000000 x_a_262 <= 50000000
 c325: y_a_263 + 50000000 x_a_263 <= 50000000
 c326: y_a_264 + 50000000 x_a_264 <= 50000000
 c327: y_a_265 + 50000000 x_a_265 <= 50000000
 c328: y_a_266 + 50000000 x_a_266 <= 50000000
 c329: y_a_267 + 50000000 x_a_267 <= 50000000
 c330: y_a_268 + 50000000 x_a_268 <= 50000000
 c331: y_a_269 + 50000000 x_a_269 <= 50000000
 c332: y_a_270 + 50000000 x_a_270 <= 50000000
 c333: y_a_271 + 50000000 x_a_271 <= 50000000
 c334: y_a_272 + 10000 x_a_272 <= 10000
Bounds
 0 <= x_a_0 <= 1
 0 <= x_a_1 <= 1
 0 <= x_a_2 <= 1
 0 <= x_a_3 <= 1
 0 <= x_a_4 <= 1
 0 <= x_a_5 <= 1
 0 <= x_a_6 <= 1
 0 <= x_a_7 <= 1
 0 <= x_a_8 <= 1
 0 <= x_a_9 <= 1
 0 <= x_a_10 <= 1
 0 <= x_a_11 <= 1
 0 <= x_a_12 <= 1
 0 <= x_a_13 <= 1
 0 <= x_a_14 <= 1
 0 <= x_a_15 <= 1
 0 <= x_a_16 <= 1
 0 <= x_a_17 <= 1
 0 <= x_a_18 <= 1
 0 <= x_a_19 <= 1
 0 <= x_a_20 <= 1
 0 <= x_a_21 <= 1
 0 <= x_a_22 <= 1
 0 <= x_a_23 <= 1
 0 <= x_a_24 <= 1
 0 <= x_a_25 <= 1
 0 <= x_a_26 <= 1
 0 <= x_a_27 <= 1
 0 <= x_a_28 <= 1
 0 <= x_a_29 <= 1
 0 <= x_a_30 <= 1
 0 <= x_a_31 <= 1
 0 <= x_a_32 <= 1
 0 <= x_a_33 <= 1
 0 <= x_a_34 <= 1
 0 <= x_a_35 <= 1
 0 <= x_a_36 <= 1
 0 <= x_a_37 <= 1
 0 <= x_a_38 <= 1
 0 <= x_a_39 <= 1
 0 <= x_a_40 <= 1
 0 <= x_a_41 <= 1
 0 <= x_a_42 <= 1
 0 <= x_a_43 <= 1
 0 <= x_a_44 <= 1
 0 <= x_a_45 <= 1
 0 <= x_a_46 <= 1
 0 <= x_a_47 <= 1
 0 <= x_a_48 <= 1
 0 <= x_a_49 <= 1
 0 <= x_a_50 <= 1
 0 <= x_a_51 <= 1
 0 <= x_a_52 <= 1
 0 <= x_a_53 <= 1
 0 <= x_a_54 <= 1
 0 <= x_a_55 <= 1
 0 <= x_a_56 <= 1
 0 <= x_a_57 <= 1
 0 <= x_a_58 <= 1
 0 <= x_a_59 <= 1
 0 <= x_a_60 <= 1
 0 <= x_a_61 <= 1
 0 <= x_a_62 <= 1
 0 <= x_a_63 <= 1
 0 <= x_a_64 <= 1
 0 <= x_a_65 <= 1
 0 <= x_a_66 <= 1
 0 <= x_a_67 <= 1
 0 <= x_a_68 <= 1
 0 <= x_a_69 <= 1
 0 <= x_a_70 <= 1
 0 <= x_a_71 <= 1
 0 <= x_a_72 <= 1
 0 <= x_a_73 <= 1
 0 <= x_a_74 <= 1
 0 <= x_a_75 <= 1
 0 <= x_a_76 <= 1
 0 <= x_a_77 <= 1
 0 <= x_a_78 <= 1
 0 <= x_a_79 <= 1
 0 <= x_a_80 <= 1
 0 <= x_a_81 <= 1
 0 <= x_a_82 <= 1
 0 <= x_a_83 <= 1
 0 <= x_a_84 <= 1
 0 <= x_a_85 <= 1
 0 <= x_a_86 <= 1
 0 <= x_a_87 <= 1
 0 <= x_a_88 <= 1
 0 <= x_a_89 <= 1
 0 <= x_a_90 <= 1
 0 <= x_a_91 <= 1
 0 <= x_a_92 <= 1
 0 <= x_a_93 <= 1
 0 <= x_a_94 <= 1
 0 <= x_a_95 <= 1
 0 <= x_a_96 <= 1
 0 <= x_a_97 <= 1
 0 <= x_a_98 <= 1
 0 <= x_a_99 <= 1
 0 <= x_a_100 <= 1
 0 <= x_a_101 <= 1
 0 <= x_a_102 <= 1
 0 <= x_a_103 <= 1
 0 <= x_a_104 <= 1
 0 <= x_a_105 <= 1
 0 <= x_a_106 <= 1
 0 <= x_a_107 <= 1
 0 <= x_a_108 <= 1
 0 <= x_a_109 <= 1
 0 <= x_a_110 <= 1
 0 <= x_a_111 <= 1
 0 <= x_a_112 <= 1
 0 <= x_a_113 <= 1
 0 <= x_a_114 <= 1
 0 <= x_a_115 <= 1
 0 <= x_a_116 <= 1
 0 <= x_a_117 <= 1
 0 <= x_a_118 <= 1
 0 <= x_a_119 <= 1
 0 <= x_a_120 <= 1
 0 <= x_a_121 <= 1
 0 <= x_a_122 <= 1
 0 <= x_a_123 <= 1
 0 <= x_a_124 <= 1
 0 <= x_a_125 <= 1
 0 <= x_a_126 <= 1
 0 <= x_a_127 <= 1
 0 <= x_a_128 <= 1
 0 <= x_a_129 <= 1
 0 <= x_a_130 <= 1
 0 <= x_a_131 <= 1
 0 <= x_a_132 <= 1
 0 <= x_a_133 <= 1
 0 <= x_a_134 <= 1
 0 <= x_a_135 <= 1
 0 <= x_a_136 <= 1
 0 <= x_a_137 <= 1
 0 <= x_a_138 <= 1
 0 <= x_a_139 <= 1
 0 <= x_a_140 <= 1
 0 <= x_a_141 <= 1
 0 <= x_a_142 <= 1
 0 <= x_a_143 <= 1
 0 <= x_a_144 <= 1
 0 <= x_a_145 <= 1
 0 <= x_a_146 <= 1
 0 <= x_a_147 <= 1
 0 <= x_a_148 <= 1
 0 <= x_a_149 <= 1
 0 <= x_a_150 <= 1
 0 <= x_a_151 <= 1
 0 <= x_a_152 <= 1
 0 <= x_a_153 <= 1
 0 <= x_a_154 <= 1
 0 <= x_a_155 <= 1
 0 <= x_a_156 <= 1
 0 <= x_a_157 <= 1
 0 <= x_a_158 <= 1
 0 <= x_a_159 <= 1
 0 <= x_a_160 <= 1
 0 <= x_a_161 <= 1
 0 <= x_a_162 <= 1
 0 <= x_a_163 <= 1
 0 <= x_a_164 <= 1
 0 <= x_a_165 <= 1
 0 <= x_a_166 <= 1
 0 <= x_a_167 <= 1
 0 <= x_a_168 <= 1
 0 <= x_a_169 <= 1
 0 <= x_a_170 <= 1
 0 <= x_a_171 <= 1
 0 <= x_a_172 <= 1
 0 <= x_a_173 <= 1
 0 <= x_a_174 <= 1
 0 <= x_a_175 <= 1
 0 <= x_a_176 <= 1
 0 <= x_a_177 <= 1
 0 <= x_a_178 <= 1
 0 <= x_a_179 <= 1
 0 <= x_a_180 <= 1
 0 <= x_a_181 <= 1
 0 <= x_a_182 <= 1
 0 <= x_a_183 <= 1
 0 <= x_a_184 <= 1
 0 <= x_a_185 <= 1
 0 <= x_a_186 <= 1
 0 <= x_a_187 <= 1
 0 <= x_a_188 <= 1
 0 <= x_a_189 <= 1
 0 <= x_a_190 <= 1
 0 <= x_a_191 <= 1
 0 <= x_a_192 <= 1
 0 <= x_a_193 <= 1
 0 <= x_a_194 <= 1
 0 <= x_a_195 <= 1
 0 <= x_a_196 <= 1
 0 <= x_a_197 <= 1
 0 <= x_a_198 <= 1
 0 <= x_a_199 <= 1
 0 <= x_a_200 <= 1
 0 <= x_a_201 <= 1
 0 <= x_a_202 <= 1
 0 <= x_a_203 <= 1
 0 <= x_a_204 <= 1
 0 <= x_a_205 <= 1
 0 <= x_a_206 <= 1
 0 <= x_a_207 <= 1
 0 <= x_a_208 <= 1
 0 <= x_a_209 <= 1
 0 <= x_a_210 <= 1
 0 <= x_a_211 <= 1
 0 <= x_a_212 <= 1
 0 <= x_a_213 <= 1
 0 <= x_a_214 <= 1
 0 <= x_a_215 <= 1
 0 <= x_a_216 <= 1
 0 <= x_a_217 <= 1
 0 <= x_a_218 <= 1
 0 <= x_a_219 <= 1
 0 <= x_a_220 <= 1
 0 <= x_a_221 <= 1
 0 <= x_a_222 <= 1
 0 <= x_a_223 <= 1
 0 <= x_a_224 <= 1
 0 <= x_a_225 <= 1
 0 <= x_a_226 <= 1
 0 <= x_a_227 <= 1
 0 <= x_a_228 <= 1
 0 <= x_a_229 <= 1
 0 <= x_a_230 <= 1
 0 <= x_a_231 <= 1
 0 <= x_a_232 <= 1
 0 <= x_a_233 <= 1
 0 <= x_a_234 <= 1
 0 <= x_a_235 <= 1
 0 <= x_a_236 <= 1
 0 <= x_a_237 <= 1
 0 <= x_a_238 <= 1
 0 <= x_a_239 <= 1
 0 <= x_a_240 <= 1
 0 <= x_a_241 <= 1
 0 <= x_a_242 <= 1
 0 <= x_a_243 <= 1
 0 <= x_a_244 <= 1
 0 <= x_a_245 <= 1
 0 <= x_a_246 <= 1
 0 <= x_a_247 <= 1
 0 <= x_a_248 <= 1
 0 <= x_a_249 <= 1
 0 <= x_a_250 <= 1
 0 <= x_a_251 <= 1
 0 <= x_a_252 <= 1
 0 <= x_a_253 <= 1
 0 <= x_a_254 <= 1
 0 <= x_a_255 <= 1
 0 <= x_a_256 <= 1
 0 <= x_a_257 <= 1
 0 <= x_a_258 <= 1
 0 <= x_a_259 <= 1
 0 <= x_a_260 <= 1
 0 <= x_a_261 <= 1
 0 <= x_a_262 <= 1
 0 <= x_a_263 <= 1
 0 <= x_a_264 <= 1
 0 <= x_a_265 <= 1
 0 <= x_a_266 <= 1
 0 <= x_a_267 <= 1
 0 <= x_a_268 <= 1
 0 <= x_a_269 <= 1
 0 <= x_a_270 <= 1
 0 <= x_a_271 <= 1
 0 <= x_a_272 <= 1
Binaries
 x_a_0  x_a_1  x_a_2  x_a_3  x_a_4  x_a_5  x_a_6  x_a_7  x_a_8  x_a_9  x_a_10 
 x_a_11  x_a_12  x_a_13  x_a_14  x_a_15  x_a_16  x_a_17  x_a_18  x_a_19 
 x_a_20  x_a_21  x_a_22  x_a_23  x_a_24  x_a_25  x_a_26  x_a_27  x_a_28 
 x_a_29  x_a_30  x_a_31  x_a_32  x_a_33  x_a_34  x_a_35  x_a_36  x_a_37 
 x_a_38  x_a_39  x_a_40  x_a_41  x_a_42  x_a_43  x_a_44  x_a_45  x_a_46 
 x_a_47  x_a_48  x_a_49  x_a_50  x_a_51  x_a_52  x_a_53  x_a_54  x_a_55 
 x_a_56  x_a_57  x_a_58  x_a_59  x_a_60  x_a_61  x_a_62  x_a_63  x_a_64 
 x_a_65  x_a_66  x_a_67  x_a_68  x_a_69  x_a_70  x_a_71  x_a_72  x_a_73 
 x_a_74  x_a_75  x_a_76  x_a_77  x_a_78  x_a_79  x_a_80  x_a_81  x_a_82 
 x_a_83  x_a_84  x_a_85  x_a_86  x_a_87  x_a_88  x_a_89  x_a_90  x_a_91 
 x_a_92  x_a_93  x_a_94  x_a_95  x_a_96  x_a_97  x_a_98  x_a_99  x_a_100 
 x_a_101  x_a_102  x_a_103  x_a_104  x_a_105  x_a_106  x_a_107  x_a_108 
 x_a_109  x_a_110  x_a_111  x_a_112  x_a_113  x_a_114  x_a_115  x_a_116 
 x_a_117  x_a_118  x_a_119  x_a_120  x_a_121  x_a_122  x_a_123  x_a_124 
 x_a_125  x_a_126  x_a_127  x_a_128  x_a_129  x_a_130  x_a_131  x_a_132 
 x_a_133  x_a_134  x_a_135  x_a_136  x_a_137  x_a_138  x_a_139  x_a_140 
 x_a_141  x_a_142  x_a_143  x_a_144  x_a_145  x_a_146  x_a_147  x_a_148 
 x_a_149  x_a_150  x_a_151  x_a_152  x_a_153  x_a_154  x_a_155  x_a_156 
 x_a_157  x_a_158  x_a_159  x_a_160  x_a_161  x_a_162  x_a_163  x_a_164 
 x_a_165  x_a_166  x_a_167  x_a_168  x_a_169  x_a_170  x_a_171  x_a_172 
 x_a_173  x_a_174  x_a_175  x_a_176  x_a_177  x_a_178  x_a_179  x_a_180 
 x_a_181  x_a_182  x_a_183  x_a_184  x_a_185  x_a_186  x_a_187  x_a_188 
 x_a_189  x_a_190  x_a_191  x_a_192  x_a_193  x_a_194  x_a_195  x_a_196 
 x_a_197  x_a_198  x_a_199  x_a_200  x_a_201  x_a_202  x_a_203  x_a_204 
 x_a_205  x_a_206  x_a_207  x_a_208  x_a_209  x_a_210  x_a_211  x_a_212 
 x_a_213  x_a_214  x_a_215  x_a_216  x_a_217  x_a_218  x_a_219  x_a_220 
 x_a_221  x_a_222  x_a_223  x_a_224  x_a_225  x_a_226  x_a_227  x_a_228 
 x_a_229  x_a_230  x_a_231  x_a_232  x_a_233  x_a_234  x_a_235  x_a_236 
 x_a_237  x_a_238  x_a_239  x_a_240  x_a_241  x_a_242  x_a_243  x_a_244 
 x_a_245  x_a_246  x_a_247  x_a_248  x_a_249  x_a_250  x_a_251  x_a_252 
 x_a_253  x_a_254  x_a_255  x_a_256  x_a_257  x_a_258  x_a_259  x_a_260 
 x_a_261  x_a_262  x_a_263  x_a_264  x_a_265  x_a_266  x_a_267  x_a_268 
 x_a_269  x_a_270  x_a_271  x_a_272 
End
